c Extremely challenging 3-coloring problem for 25 vertices
c This creates 75 variables and many constraints
c Should require 1000+ generations due to complex constraint interactions
p cnf 75 469
1 2 3 0
4 5 6 0
7 8 9 0
10 11 12 0
13 14 15 0
16 17 18 0
19 20 21 0
22 23 24 0
25 26 27 0
28 29 30 0
31 32 33 0
34 35 36 0
37 38 39 0
40 41 42 0
43 44 45 0
46 47 48 0
49 50 51 0
52 53 54 0
55 56 57 0
58 59 60 0
61 62 63 0
64 65 66 0
67 68 69 0
70 71 72 0
73 74 75 0
-1 -2 0
-1 -3 0
-2 -3 0
-4 -5 0
-4 -6 0
-5 -6 0
-7 -8 0
-7 -9 0
-8 -9 0
-10 -11 0
-10 -12 0
-11 -12 0
-13 -14 0
-13 -15 0
-14 -15 0
-16 -17 0
-16 -18 0
-17 -18 0
-19 -20 0
-19 -21 0
-20 -21 0
-22 -23 0
-22 -24 0
-23 -24 0
-25 -26 0
-25 -27 0
-26 -27 0
-28 -29 0
-28 -30 0
-29 -30 0
-31 -32 0
-31 -33 0
-32 -33 0
-34 -35 0
-34 -36 0
-35 -36 0
-37 -38 0
-37 -39 0
-38 -39 0
-40 -41 0
-40 -42 0
-41 -42 0
-43 -44 0
-43 -45 0
-44 -45 0
-46 -47 0
-46 -48 0
-47 -48 0
-49 -50 0
-49 -51 0
-50 -51 0
-52 -53 0
-52 -54 0
-53 -54 0
-55 -56 0
-55 -57 0
-56 -57 0
-58 -59 0
-58 -60 0
-59 -60 0
-61 -62 0
-61 -63 0
-62 -63 0
-64 -65 0
-64 -66 0
-65 -66 0
-67 -68 0
-67 -69 0
-68 -69 0
-70 -71 0
-70 -72 0
-71 -72 0
-73 -74 0
-73 -75 0
-74 -75 0
-1 -7 0
-2 -8 0
-3 -9 0
-1 -19 0
-2 -20 0
-3 -21 0
-1 -25 0
-2 -26 0
-3 -27 0
-1 -34 0
-2 -35 0
-3 -36 0
-1 -40 0
-2 -41 0
-3 -42 0
-1 -43 0
-2 -44 0
-3 -45 0
-1 -52 0
-2 -53 0
-3 -54 0
-1 -61 0
-2 -62 0
-3 -63 0
-1 -67 0
-2 -68 0
-3 -69 0
-1 -70 0
-2 -71 0
-3 -72 0
-1 -73 0
-2 -74 0
-3 -75 0
-4 -13 0
-5 -14 0
-6 -15 0
-4 -19 0
-5 -20 0
-6 -21 0
-4 -40 0
-5 -41 0
-6 -42 0
-4 -52 0
-5 -53 0
-6 -54 0
-4 -55 0
-5 -56 0
-6 -57 0
-4 -61 0
-5 -62 0
-6 -63 0
-4 -67 0
-5 -68 0
-6 -69 0
-4 -73 0
-5 -74 0
-6 -75 0
-7 -16 0
-8 -17 0
-9 -18 0
-7 -25 0
-8 -26 0
-9 -27 0
-7 -28 0
-8 -29 0
-9 -30 0
-7 -34 0
-8 -35 0
-9 -36 0
-7 -40 0
-8 -41 0
-9 -42 0
-7 -43 0
-8 -44 0
-9 -45 0
-7 -58 0
-8 -59 0
-9 -60 0
-10 -13 0
-11 -14 0
-12 -15 0
-10 -16 0
-11 -17 0
-12 -18 0
-10 -19 0
-11 -20 0
-12 -21 0
-10 -25 0
-11 -26 0
-12 -27 0
-10 -34 0
-11 -35 0
-12 -36 0
-10 -49 0
-11 -50 0
-12 -51 0
-10 -52 0
-11 -53 0
-12 -54 0
-10 -58 0
-11 -59 0
-12 -60 0
-10 -64 0
-11 -65 0
-12 -66 0
-13 -16 0
-14 -17 0
-15 -18 0
-13 -25 0
-14 -26 0
-15 -27 0
-13 -28 0
-14 -29 0
-15 -30 0
-13 -49 0
-14 -50 0
-15 -51 0
-13 -52 0
-14 -53 0
-15 -54 0
-13 -61 0
-14 -62 0
-15 -63 0
-13 -67 0
-14 -68 0
-15 -69 0
-13 -73 0
-14 -74 0
-15 -75 0
-16 -25 0
-17 -26 0
-18 -27 0
-16 -28 0
-17 -29 0
-18 -30 0
-16 -46 0
-17 -47 0
-18 -48 0
-16 -49 0
-17 -50 0
-18 -51 0
-16 -55 0
-17 -56 0
-18 -57 0
-16 -58 0
-17 -59 0
-18 -60 0
-16 -61 0
-17 -62 0
-18 -63 0
-16 -64 0
-17 -65 0
-18 -66 0
-16 -70 0
-17 -71 0
-18 -72 0
-19 -28 0
-20 -29 0
-21 -30 0
-19 -43 0
-20 -44 0
-21 -45 0
-19 -55 0
-20 -56 0
-21 -57 0
-19 -70 0
-20 -71 0
-21 -72 0
-19 -73 0
-20 -74 0
-21 -75 0
-22 -25 0
-23 -26 0
-24 -27 0
-22 -28 0
-23 -29 0
-24 -30 0
-22 -37 0
-23 -38 0
-24 -39 0
-22 -49 0
-23 -50 0
-24 -51 0
-22 -55 0
-23 -56 0
-24 -57 0
-22 -58 0
-23 -59 0
-24 -60 0
-22 -70 0
-23 -71 0
-24 -72 0
-25 -28 0
-26 -29 0
-27 -30 0
-25 -40 0
-26 -41 0
-27 -42 0
-25 -43 0
-26 -44 0
-27 -45 0
-25 -49 0
-26 -50 0
-27 -51 0
-25 -58 0
-26 -59 0
-27 -60 0
-25 -61 0
-26 -62 0
-27 -63 0
-25 -73 0
-26 -74 0
-27 -75 0
-28 -31 0
-29 -32 0
-30 -33 0
-28 -34 0
-29 -35 0
-30 -36 0
-28 -37 0
-29 -38 0
-30 -39 0
-28 -43 0
-29 -44 0
-30 -45 0
-28 -52 0
-29 -53 0
-30 -54 0
-28 -64 0
-29 -65 0
-30 -66 0
-31 -34 0
-32 -35 0
-33 -36 0
-31 -37 0
-32 -38 0
-33 -39 0
-31 -40 0
-32 -41 0
-33 -42 0
-31 -58 0
-32 -59 0
-33 -60 0
-31 -61 0
-32 -62 0
-33 -63 0
-31 -64 0
-32 -65 0
-33 -66 0
-31 -70 0
-32 -71 0
-33 -72 0
-34 -40 0
-35 -41 0
-36 -42 0
-34 -49 0
-35 -50 0
-36 -51 0
-34 -61 0
-35 -62 0
-36 -63 0
-34 -64 0
-35 -65 0
-36 -66 0
-34 -67 0
-35 -68 0
-36 -69 0
-34 -70 0
-35 -71 0
-36 -72 0
-37 -49 0
-38 -50 0
-39 -51 0
-37 -58 0
-38 -59 0
-39 -60 0
-37 -61 0
-38 -62 0
-39 -63 0
-37 -64 0
-38 -65 0
-39 -66 0
-37 -70 0
-38 -71 0
-39 -72 0
-40 -46 0
-41 -47 0
-42 -48 0
-40 -49 0
-41 -50 0
-42 -51 0
-40 -52 0
-41 -53 0
-42 -54 0
-40 -55 0
-41 -56 0
-42 -57 0
-40 -58 0
-41 -59 0
-42 -60 0
-40 -67 0
-41 -68 0
-42 -69 0
-40 -70 0
-41 -71 0
-42 -72 0
-43 -55 0
-44 -56 0
-45 -57 0
-43 -70 0
-44 -71 0
-45 -72 0
-43 -73 0
-44 -74 0
-45 -75 0
-46 -55 0
-47 -56 0
-48 -57 0
-46 -58 0
-47 -59 0
-48 -60 0
-46 -70 0
-47 -71 0
-48 -72 0
-49 -64 0
-50 -65 0
-51 -66 0
-49 -73 0
-50 -74 0
-51 -75 0
-52 -67 0
-53 -68 0
-54 -69 0
-55 -61 0
-56 -62 0
-57 -63 0
-55 -64 0
-56 -65 0
-57 -66 0
-55 -67 0
-56 -68 0
-57 -69 0
-58 -61 0
-59 -62 0
-60 -63 0
-58 -64 0
-59 -65 0
-60 -66 0
-58 -67 0
-59 -68 0
-60 -69 0
-58 -70 0
-59 -71 0
-60 -72 0
-58 -73 0
-59 -74 0
-60 -75 0
-61 -64 0
-62 -65 0
-63 -66 0
-64 -73 0
-65 -74 0
-66 -75 0
-67 -73 0
-68 -74 0
-69 -75 0
-70 -73 0
-71 -74 0
-72 -75 0
